
Gurobi 9.5.0 (mac64[x86]) logging started Wed 14 Sep 10:56:23 2022

Set parameter LogFile to value "/Users/nikitabelyak/Dropbox (Aalto)/TSEP/Nordic_case_study/2022 data/optimisation_results/14_Sep_2022_10_56_23.log"
Set parameter Threads to value 6
